data;

param w := 15;
param n := 25;
param min_h := 40;
param max_h := 65;

set BLOCKS := 1 2 3 4 5 6 7 8 9 10 11 12 13 14 15 16 17 18 19 20 21 22 23 24 25 ;

param:	width	height :=
	1	4	26
	2	7	10
	3	4	12
	4	5	9
	5	4	11
	6	4	8
	7	4	8
	8	5	5
	9	3	8
	10	2	11
	11	2	11
	12	2	10
	13	5	4
	14	2	7
	15	2	6
	16	4	3
	17	2	6
	18	4	2
	19	2	3
	20	3	2
	21	2	3
	22	1	6
	23	1	4
	24	3	1
	25	1	3;